\Problem name: IloCplex

Minimize
 obj: 76.1577310586391 id2583 + 61.6116872029975 id2584
      + 78.7146746166177 id2585 + 72.1110255092798 id2586
      + 80.6225774829855 id2587 + 66.6033032213869 id2588
      + 70.7106781186548 id2589 + 78.1024967590665 id2590
      + 67.0820393249937 id2591 + 63.2455532033676 id2592
      + 67.0522184569608 id2593 + 64.7765389628066 id2594
      + 76.1577310586391 id2595 + 70.7106781186548 id2596
      + 78.587530817554 id2597 + 82.4621125123532 id2598
      + 80.6225774829855 id2599 + 90.3548559846121 id2600
      + 80.0999375780031 id2601 + 70.1141925718324 id2602 + 90 id2603
      + 70 id2604 + 90.0888450364417 id2605 + 70.1141925718324 id2606
      + 90.5538513813742 id2607 + 267.081005811564 id2608
      + 332.702593081866 id2609 + 220.564982651149 id2610
      + 277.305305170252 id2611 + 191.57412638742 id2612
      + 341.245219680356 id2613 + 321.773174925578 id2614
      + 233.013011890492 id2615 + 218.712630403959 id2616
      + 249.325801636343 id2617 + 248.80881722327 id2618
      + 255.941532072225 id2619 + 214.764563438171 id2620
      + 233.536030662364 id2621 + 257.536484696754 id2622
      + 264.054992758704 id2623 + 323.66193026899 id2624
      + 156.732085537232 id2625 + 175.216516815201 id2626
      + 233.711154284029 id2627 + 248.467314956029 id2628
      + 229.621557106889 id2629 + 227.49034196287 id2630
      + 165.744313740369 id2631 + 272.799061835982 id2632
      + 208.416450868328 id2633 + 192.78074043305 id2634
      + 217.896856640168 id2635 + 223.061335593575 id2636
      + 233.005747621501 id2637 + 207.214118722635 id2638
      + 150.405553771265 id2639 + 194.806114447478 id2640
      + 221.29068044741 id2641 + 186.595805778079 id2642
      + 210.378228220081 id2643 + 175.488980915502 id2644
      + 233.032667340176 id2645 + 175.103306625406 id2646
      + 209.19639848523 id2647 + 168.836882502642 id2648
      + 155.914261769975 id2649 + 216.613287649182 id2650
      + 146.129160653466 id2651 + 208.701614461344 id2652
      + 146.176702054038 id2653 + 194.476344579244 id2654
      + 153.658804819195 id2655 + 201.208141039718 id2656
      + 160.087265351971 id2657 + 146.190572349581 id2658
      + 142.560975582275 id2659 + 174.787347733582 id2660
      + 163.549327627823 id2661 + 152.841008904895 id2662
      + 121.51871054305 id2663 + 256.517003195284 id2664
      + 152.589022788508 id2665 + 158.220651430258 id2666
      + 131.612885179004 id2667 + 107.700686883554 id2668
      + 154.361893516121 id2669 + 153.358735178284 id2670
      + 155.92658576016 id2671 + 265.125112151676 id2672
      + 163.635211217992 id2673 + 201.562972335942 id2674
      + 112.971860621324 id2675 + 152.908100904207 id2676
      + 151.154226340246 id2677 + 144.353169096321 id2678
      + 196.886552986537 id2679 + 208.365203406607 id2680
      + 219.606643383741 id2681 + 120.131305809759 id2682
      + 269.541117223916 id2683 + 200.002702280172 id2684
      + 192.258528161942 id2685 + 215.738585383054 id2686
      + 184.250087007864 id2687 + 149.118597144939 id2688
      + 111.74898739503 id2689 + 144.043022333327 id2690
      + 192.925777790305 id2691 + 175.272221496437 id2692
      + 211.669884947709 id2693 + 198.505928980435 id2694
      + 192.897803956691 id2695 + 195.45403096167 id2696
      + 197.672810057228 id2697 + 105.045006715505 id2698
      + 157.453133648504 id2699 + 159.263495898481 id2700
      + 164.165920778445 id2701 + 193.672810057228 id2702
      + 198.371096845976 id2703 + 143.599002286605 id2704
      + 119.027307575818 id2705 + 156.795561828821 id2706
      + 132.287763227331 id2707 + 99.1584555485101 id2708
      + 160.600164774706 id2709 + 124.737181439376 id2710
      + 159.557392229438 id2711 + 147.048033790657 id2712
      + 154.068586925517 id2713 + 155.465657416713 id2714
      + 173.055549340047 id2715 + 116.184517795091 id2716
      + 156.662631713718 id2717 + 165.474418811162 id2718
      + 210.725558827612 id2719 + 110.110218628978 id2720
      + 117.423084444107 id2721 + 198.786363971115 id2722
      + 222.433581514376 id2723 + 156.090736921884 id2724
      + 144.36892528425 id2725 + 142.302719845636 id2726
      + 169.106686805168 id2727 + 152.71123742745 id2728
      + 148.239554825843 id2729 + 153.089747603429 id2730
      + 121.113449983226 id2731 + 138.344165704176 id2732
      + 119.027307575818 id2733 + 95.3465798971695 id2734
      + 190.955412076269 id2735 + 116.134613360041 id2736
      + 131.12473806121 id2737 + 143.683022279519 id2738
      + 143.321210247064 id2739 + 126.098375387683 id2740
      + 148.325356942419 id2741 + 144.072302285204 id2742
      + 174.138822377599 id2743 + 184.41629241162 id2744
      + 136.708196658894 id2745 + 94.871848418406 id2746
      + 202.09569815776 id2747 + 220.890077856111 id2748
      + 166.800452527696 id2749 + 182.85403292036 id2750
      + 171.388665967958 id2751 + 145.781416035464 id2752
      + 96.4866836112715 id2753 + 95.2148898047277 id2754
      + 92.2995578313226 id2755 + 95.9325363909628 id2756
      + 163.134581679398 id2757 + 132.579832672963 id2758
      + 119.133545735916 id2759 + 118.946419955967 id2760
      + 102.871848418406 id2761 + 197.879323448955 id2762
      + 141.323422064574 id2763 + 125.353444218648 id2764
      + 88.6840081640516 id2765 + 97.5347494350467 id2766
      + 160.090006052677 id2767 + 147.898710018369 id2768
      + 87.2075539460885 id2769 + 87.0758638536467 id2770
      + 133.489883150976 id2771 + 160.429802990149 id2772
      + 113.23571695387 id2773 + 133.104568981178 id2774
      + 140.175636793043 id2775 + 186.844898586958 id2776
      + 93.5418253130476 id2777 + 133.184396113493 id2778
      + 96.0305574442414 id2779 + 103.616716504081 id2780
      + 106.610048588869 id2781 + 96.2995578313226 id2782
      + 197.600084955947 id2783 + 173.140249964006 id2784
      + 96.2995578313226 id2785 + 173.140249964006 id2786 + id2787
Subject To
 id2533: id2583 + id2609 + id2610 + id2612 + id2614 + id2615 + id2618 + id2620
         + id2622 + id2623 + id2628 + id2629 + id2632 + id2634 + id2636
         + id2638 + id2639 + id2643 + id2651 + id2655 + id2656 + id2657
         + id2667 + id2671 + id2674 + id2675 + id2690 + id2691 + id2699
         + id2700 + id2701 + id2713 + id2720 + id2725 + id2728 + id2732
         + id2739 + id2750 + id2762 + id2766 + id2768 + id2776 + id2779
         + id2780 + id2781 + id2783  = 1
 id2535: id2584 + id2612 + id2616 + id2619 + id2620 + id2623 + id2627 + id2630
         + id2634 + id2635 + id2640 + id2642 + id2644 + id2645 + id2646
         + id2648 + id2652 + id2653 + id2657 + id2660 + id2661 + id2662
         + id2667 + id2670 + id2675 + id2723 + id2727 + id2729 + id2734
         + id2754 + id2766 + id2769 + id2770 + id2771 + id2772 + id2781  = 1
 id2537: id2585 + id2609 + id2610 + id2611 + id2612 + id2613 + id2614 + id2615
         + id2618 + id2620 + id2622 + id2627 + id2629 + id2634 + id2637
         + id2639 + id2645 + id2647 + id2651 + id2653 + id2675 + id2677
         + id2683 + id2684 + id2687 + id2690 + id2693 + id2694 + id2700
         + id2701 + id2713 + id2720 + id2725 + id2728 + id2729 + id2738
         + id2739 + id2747 + id2754 + id2762 + id2766 + id2770 + id2776
         + id2779 + id2780  = 1
 id2539: id2586 + id2615 + id2618 + id2620 + id2622 + id2623 + id2629 + id2632
         + id2634 + id2636 + id2637 + id2638 + id2639 + id2641 + id2642
         + id2651 + id2653 + id2655 + id2656 + id2657 + id2667 + id2674
         + id2675 + id2687 + id2688 + id2690 + id2691 + id2693 + id2699
         + id2700 + id2707 + id2713 + id2720 + id2725 + id2726 + id2732
         + id2734 + id2738 + id2747 + id2750 + id2751 + id2754 + id2762
         + id2763 + id2766 + id2768 + id2776 + id2779 + id2780 + id2781
         + id2783  = 1
 id2541: id2587 + id2608 + id2612 + id2616 + id2619 + id2620 + id2627 + id2630
         + id2632 + id2637 + id2640 + id2641 + id2642 + id2644 + id2645
         + id2647 + id2652 + id2653 + id2656 + id2657 + id2661 + id2664
         + id2670 + id2672 + id2673 + id2675 + id2676 + id2683 + id2706
         + id2720 + id2727 + id2729 + id2734 + id2754 + id2765 + id2769
         + id2770 + id2771 + id2772 + id2780 + id2781  = 1
 id2543: id2588 + id2609 + id2610 + id2611 + id2612 + id2613 + id2614 + id2615
         + id2617 + id2620 + id2622 + id2627 + id2632 + id2635 + id2637
         + id2638 + id2642 + id2645 + id2651 + id2652 + id2655 + id2657
         + id2664 + id2667 + id2670 + id2675 + id2677 + id2683 + id2687
         + id2690 + id2693 + id2701 + id2713 + id2720 + id2722 + id2723
         + id2725 + id2726 + id2727 + id2728 + id2729 + id2732 + id2734
         + id2735 + id2737 + id2738 + id2739 + id2744 + id2747 + id2748
         + id2749 + id2750 + id2751 + id2754 + id2758 + id2762 + id2763
         + id2764 + id2765 + id2766 + id2768 + id2769 + id2770 + id2771
         + id2772 + id2773 + id2774 + id2775 + id2776 + id2778 + id2779
         + id2780 + id2781 + id2783 + id2784 + id2786  = 1
 id2545: id2589 + id2609 + id2610 + id2611 + id2612 + id2613 + id2614 + id2615
         + id2617 + id2618 + id2620 + id2623 + id2624 + id2627 + id2629
         + id2630 + id2635 + id2641 + id2642 + id2646 + id2647 + id2651
         + id2652 + id2655 + id2656 + id2661 + id2670 + id2675 + id2683
         + id2684 + id2691 + id2693 + id2694 + id2700 + id2701 + id2707
         + id2713 + id2722 + id2726 + id2728 + id2735 + id2737 + id2748
         + id2751 + id2763 + id2764 + id2765 + id2766 + id2771 + id2772
         + id2773 + id2774 + id2775 + id2776 + id2778 + id2779 + id2781
         + id2784 + id2786  = 1
 id2547: id2590 + id2609 + id2610 + id2611 + id2612 + id2613 + id2614 + id2615
         + id2617 + id2618 + id2619 + id2623 + id2624 + id2629 + id2634
         + id2635 + id2637 + id2638 + id2641 + id2642 + id2645 + id2647
         + id2652 + id2653 + id2655 + id2664 + id2667 + id2670 + id2675
         + id2677 + id2684 + id2687 + id2690 + id2691 + id2693 + id2694
         + id2700 + id2701 + id2707 + id2720 + id2722 + id2725 + id2734
         + id2737 + id2738 + id2739 + id2747 + id2750 + id2762 + id2765
         + id2766 + id2769 + id2771 + id2772 + id2779 + id2781  = 1
 id2549: id2591 + id2610 + id2611 + id2617 + id2619 + id2621 + id2622 + id2623
         + id2624 + id2626 + id2627 + id2630 + id2635 + id2638 + id2639
         + id2644 + id2647 + id2652 + id2654 + id2655 + id2656 + id2658
         + id2659 + id2660 + id2661 + id2662 + id2664 + id2665 + id2666
         + id2668 + id2669 + id2670 + id2676 + id2677 + id2679 + id2682
         + id2688 + id2691 + id2692 + id2693 + id2694 + id2695 + id2696
         + id2697 + id2698 + id2699 + id2700 + id2701 + id2702 + id2705
         + id2706 + id2708 + id2709 + id2710 + id2711 + id2712 + id2713
         + id2717 + id2718 + id2719 + id2721 + id2723 + id2726 + id2727
         + id2728 + id2730 + id2731 + id2733 + id2740 + id2744 + id2747
         + id2748 + id2749 + id2750 + id2758 + id2762 + id2763 + id2764
         + id2767 + id2768 + id2771 + id2772 + id2773 + id2774 + id2775
         + id2778 + id2783 + id2784 + id2786  = 1
 id2551: id2592 + id2617 + id2619 + id2621 + id2627 + id2628 + id2630 + id2633
         + id2635 + id2637 + id2639 + id2642 + id2647 + id2649 + id2652
         + id2656 + id2662 + id2664 + id2665 + id2668 + id2669 + id2670
         + id2671 + id2673 + id2674 + id2682 + id2683 + id2684 + id2688
         + id2689 + id2692 + id2694 + id2695 + id2696 + id2697 + id2698
         + id2706 + id2708 + id2709 + id2710 + id2712 + id2716 + id2717
         + id2718 + id2719 + id2721 + id2729 + id2731 + id2733 + id2740
         + id2743 + id2748 + id2767 + id2771 + id2772 + id2773 + id2774
         + id2775  = 1
 id2553: id2593 + id2625 + id2631 + id2632 + id2633 + id2634 + id2635 + id2636
         + id2637 + id2639 + id2640 + id2641 + id2644 + id2648 + id2651
         + id2654 + id2658 + id2659 + id2660 + id2661 + id2664 + id2665
         + id2666 + id2667 + id2668 + id2671 + id2673 + id2676 + id2677
         + id2679 + id2680 + id2681 + id2682 + id2685 + id2686 + id2687
         + id2688 + id2689 + id2691 + id2694 + id2699 + id2701 + id2703
         + id2704 + id2705 + id2707 + id2708 + id2710 + id2722 + id2724
         + id2725 + id2726 + id2728 + id2730 + id2731 + id2732 + id2733
         + id2735 + id2737 + id2738 + id2739 + id2740 + id2742 + id2743
         + id2744 + id2745 + id2747 + id2748 + id2751 + id2752 + id2757
         + id2758 + id2762 + id2763 + id2764 + id2767 + id2768 + id2776
         + id2778 + id2783 + id2784 + id2786  = 1
 id2555: id2594 + id2610 + id2611 + id2612 + id2616 + id2617 + id2618 + id2621
         + id2626 + id2631 + id2633 + id2638 + id2641 + id2644 + id2648
         + id2650 + id2651 + id2656 + id2658 + id2659 + id2660 + id2662
         + id2665 + id2666 + id2667 + id2668 + id2672 + id2673 + id2676
         + id2682 + id2687 + id2690 + id2691 + id2693 + id2694 + id2695
         + id2696 + id2697 + id2698 + id2700 + id2701 + id2702 + id2703
         + id2704 + id2705 + id2706 + id2707 + id2708 + id2710 + id2714
         + id2715 + id2716 + id2722 + id2723 + id2724 + id2725 + id2726
         + id2728 + id2730 + id2731 + id2732 + id2733 + id2735 + id2737
         + id2738 + id2739 + id2740 + id2741 + id2743 + id2745 + id2747
         + id2748 + id2751 + id2757 + id2758 + id2764 + id2776  = 1
 id2557: id2595 + id2608 + id2609 + id2610 + id2611 + id2613 + id2614 + id2617
         + id2619 + id2621 + id2622 + id2624 + id2627 + id2628 + id2629
         + id2630 + id2633 + id2637 + id2642 + id2643 + id2645 + id2647
         + id2650 + id2652 + id2653 + id2654 + id2656 + id2657 + id2661
         + id2662 + id2664 + id2665 + id2668 + id2671 + id2672 + id2673
         + id2674 + id2678 + id2679 + id2680 + id2681 + id2682 + id2684
         + id2685 + id2686 + id2689 + id2692 + id2693 + id2699 + id2702
         + id2703 + id2705 + id2706 + id2709 + id2710 + id2712 + id2716
         + id2717 + id2718 + id2719 + id2721 + id2729 + id2731 + id2740
         + id2743 + id2748 + id2767 + id2772 + id2775  = 1
 id2559: id2596 + id2608 + id2609 + id2610 + id2611 + id2612 + id2613 + id2617
         + id2621 + id2623 + id2624 + id2625 + id2626 + id2634 + id2641
         + id2644 + id2651 + id2654 + id2655 + id2659 + id2662 + id2664
         + id2668 + id2671 + id2676 + id2677 + id2681 + id2683 + id2684
         + id2685 + id2686 + id2687 + id2688 + id2689 + id2690 + id2691
         + id2692 + id2693 + id2694 + id2695 + id2696 + id2697 + id2698
         + id2699 + id2700 + id2701 + id2702 + id2703 + id2704 + id2705
         + id2706 + id2707 + id2708 + id2710 + id2711 + id2712 + id2713
         + id2714 + id2715 + id2716 + id2718 + id2719 + id2721 + id2722
         + id2723 + id2724 + id2725 + id2726 + id2728 + id2730 + id2731
         + id2732 + id2733 + id2735 + id2737 + id2738 + id2739 + id2740
         + id2741 + id2742 + id2745 + id2752 + id2757 + id2758 + id2763
         + id2764 + id2768 + id2778  = 1
 id2561: id2597 + id2608 + id2609 + id2610 + id2611 + id2612 + id2613 + id2614
         + id2616 + id2622 + id2623 + id2624 + id2627 + id2628 + id2631
         + id2634 + id2635 + id2639 + id2641 + id2654 + id2655 + id2662
         + id2665 + id2666 + id2668 + id2672 + id2673 + id2677 + id2679
         + id2680 + id2681 + id2682 + id2683 + id2684 + id2685 + id2686
         + id2687 + id2688 + id2689 + id2700 + id2705 + id2708 + id2711
         + id2712 + id2713 + id2714 + id2715 + id2716 + id2718 + id2719
         + id2721 + id2722 + id2723 + id2724 + id2725 + id2726 + id2728
         + id2730 + id2731 + id2732 + id2733 + id2735 + id2737 + id2738
         + id2739 + id2740 + id2741 + id2742 + id2744 + id2752 + id2763
         + id2768 + id2778  = 1
 id2563: id2598 + id2608 + id2609 + id2610 + id2611 + id2612 + id2617 + id2618
         + id2619 + id2622 + id2626 + id2628 + id2633 + id2636 + id2639
         + id2640 + id2650 + id2651 + id2655 + id2658 + id2661 + id2662
         + id2671 + id2672 + id2673 + id2676 + id2677 + id2679 + id2680
         + id2681 + id2682 + id2684 + id2688 + id2689 + id2690 + id2692
         + id2693 + id2699 + id2700 + id2701 + id2705 + id2706 + id2707
         + id2708 + id2710 + id2711 + id2712 + id2713 + id2714 + id2715
         + id2716 + id2718 + id2719 + id2721 + id2732 + id2733 + id2735
         + id2737 + id2738 + id2739 + id2740 + id2741 + id2742 + id2743
         + id2744 + id2752 + id2758 + id2763 + id2768 + id2778 + id2783  = 1
 id2565: id2599 + id2608 + id2609 + id2610 + id2614 + id2615 + id2618 + id2619
         + id2620 + id2627 + id2628 + id2633 + id2634 + id2641 + id2642
         + id2645 + id2649 + id2650 + id2653 + id2656 + id2657 + id2661
         + id2662 + id2664 + id2665 + id2669 + id2670 + id2671 + id2672
         + id2673 + id2674 + id2676 + id2678 + id2679 + id2680 + id2681
         + id2682 + id2683 + id2684 + id2685 + id2686 + id2687 + id2688
         + id2689 + id2691 + id2692 + id2693 + id2694 + id2695 + id2696
         + id2697 + id2698 + id2699 + id2702 + id2703 + id2705 + id2709
         + id2710 + id2716 + id2717 + id2719 + id2721 + id2729 + id2731
         + id2733 + id2740 + id2743 + id2767 + id2772 + id2774 + id2775  = 1
 id2567: id2600 + id2608 + id2609 + id2613 + id2614 + id2615 + id2616 + id2621
         + id2626 + id2630 + id2631 + id2636 + id2643 + id2646 + id2648
         + id2649 + id2650 + id2654 + id2659 + id2660 + id2663 + id2669
         + id2672 + id2680 + id2681 + id2686 + id2696 + id2697 + id2703
         + id2709 + id2715 + id2719 + id2724 + id2753 + id2757 + id2759
         + id2760 + id2761 + id2785  = 1
 id2569: id2601 + id2616 + id2621 + id2624 + id2625 + id2626 + id2628 + id2629
         + id2636 + id2638 + id2640 + id2643 + id2646 + id2649 + id2654
         + id2658 + id2659 + id2660 + id2663 + id2666 + id2669 + id2672
         + id2678 + id2680 + id2685 + id2695 + id2696 + id2702 + id2704
         + id2709 + id2711 + id2714 + id2736 + id2742 + id2749 + id2753
         + id2756 + id2759  = 1
 id2571: id2602 + id2608 + id2611 + id2613 + id2616 + id2617 + id2619 + id2621
         + id2624 + id2626 + id2628 + id2632 + id2633 + id2635 + id2640
         + id2643 + id2644 + id2645 + id2646 + id2647 + id2648 + id2649
         + id2652 + id2658 + id2663 + id2674 + id2679 + id2681 + id2685
         + id2711 + id2712 + id2714 + id2718 + id2722 + id2723 + id2724
         + id2727 + id2730 + id2735 + id2736 + id2745 + id2746 + id2753
         + id2755 + id2757 + id2759 + id2760 + id2761 + id2782 + id2785  = 1
 id2573: id2603 + id2608 + id2609 + id2613 + id2614 + id2615 + id2616 + id2618
         + id2622 + id2624 + id2625 + id2629 + id2630 + id2633 + id2636
         + id2643 + id2648 + id2649 + id2650 + id2654 + id2663 + id2672
         + id2678 + id2680 + id2686 + id2695 + id2696 + id2697 + id2702
         + id2703 + id2709 + id2717 + id2719 + id2745 + id2753 + id2756
         + id2760  = 1
 id2575: id2604 + id2625 + id2626 + id2629 + id2630 + id2631 + id2632 + id2633
         + id2643 + id2644 + id2645 + id2646 + id2648 + id2649 + id2650
         + id2658 + id2659 + id2663 + id2666 + id2669 + id2674 + id2679
         + id2685 + id2686 + id2695 + id2697 + id2702 + id2711 + id2714
         + id2715 + id2717 + id2719 + id2722 + id2723 + id2724 + id2727
         + id2730 + id2735 + id2736 + id2742 + id2749 + id2755 + id2761
         + id2782  = 1
 id2577: id2605 + id2608 + id2613 + id2614 + id2615 + id2618 + id2621 + id2622
         + id2624 + id2625 + id2628 + id2631 + id2638 + id2640 + id2643
         + id2646 + id2648 + id2649 + id2650 + id2654 + id2663 + id2669
         + id2674 + id2678 + id2681 + id2697 + id2702 + id2703 + id2704
         + id2709 + id2714 + id2715 + id2717 + id2724 + id2736 + id2741
         + id2742 + id2743 + id2744 + id2745 + id2746 + id2747 + id2748
         + id2749 + id2750 + id2751 + id2752 + id2753 + id2755 + id2756
         + id2757 + id2759 + id2760 + id2761 + id2762 + id2767 + id2776
         + id2777 + id2782 + id2783 + id2784 + id2785 + id2786  = 1
 id2579: id2606 + id2608 + id2609 + id2611 + id2613 + id2614 + id2616 + id2617
         + id2619 + id2621 + id2623 + id2625 + id2631 + id2632 + id2636
         + id2640 + id2644 + id2645 + id2646 + id2647 + id2650 + id2652
         + id2658 + id2659 + id2660 + id2663 + id2665 + id2683 + id2685
         + id2686 + id2692 + id2704 + id2711 + id2712 + id2714 + id2722
         + id2724 + id2727 + id2741 + id2746 + id2752 + id2756 + id2759
         + id2760 + id2761 + id2777 + id2782  = 1
 id2581: id2607 + id2608 + id2611 + id2613 + id2616 + id2617 + id2619 + id2620
         + id2623 + id2624 + id2625 + id2626 + id2631 + id2643 + id2650
         + id2652 + id2660 + id2663 + id2664 + id2666 + id2672 + id2678
         + id2679 + id2680 + id2681 + id2683 + id2686 + id2692 + id2703
         + id2704 + id2711 + id2715 + id2718 + id2723 + id2730 + id2736
         + id2741 + id2752 + id2756 + id2757 + id2759 + id2760 + id2777  = 1
Bounds
 0 <= id2583 <= 1
 0 <= id2584 <= 1
 0 <= id2585 <= 1
 0 <= id2586 <= 1
 0 <= id2587 <= 1
 0 <= id2588 <= 1
 0 <= id2589 <= 1
 0 <= id2590 <= 1
 0 <= id2591 <= 1
 0 <= id2592 <= 1
 0 <= id2593 <= 1
 0 <= id2594 <= 1
 0 <= id2595 <= 1
 0 <= id2596 <= 1
 0 <= id2597 <= 1
 0 <= id2598 <= 1
 0 <= id2599 <= 1
 0 <= id2600 <= 1
 0 <= id2601 <= 1
 0 <= id2602 <= 1
 0 <= id2603 <= 1
 0 <= id2604 <= 1
 0 <= id2605 <= 1
 0 <= id2606 <= 1
 0 <= id2607 <= 1
 0 <= id2608 <= 1
 0 <= id2609 <= 1
 0 <= id2610 <= 1
 0 <= id2611 <= 1
 0 <= id2612 <= 1
 0 <= id2613 <= 1
 0 <= id2614 <= 1
 0 <= id2615 <= 1
 0 <= id2616 <= 1
 0 <= id2617 <= 1
 0 <= id2618 <= 1
 0 <= id2619 <= 1
 0 <= id2620 <= 1
 0 <= id2621 <= 1
 0 <= id2622 <= 1
 0 <= id2623 <= 1
 0 <= id2624 <= 1
 0 <= id2625 <= 1
 0 <= id2626 <= 1
 0 <= id2627 <= 1
 0 <= id2628 <= 1
 0 <= id2629 <= 1
 0 <= id2630 <= 1
 0 <= id2631 <= 1
 0 <= id2632 <= 1
 0 <= id2633 <= 1
 0 <= id2634 <= 1
 0 <= id2635 <= 1
 0 <= id2636 <= 1
 0 <= id2637 <= 1
 0 <= id2638 <= 1
 0 <= id2639 <= 1
 0 <= id2640 <= 1
 0 <= id2641 <= 1
 0 <= id2642 <= 1
 0 <= id2643 <= 1
 0 <= id2644 <= 1
 0 <= id2645 <= 1
 0 <= id2646 <= 1
 0 <= id2647 <= 1
 0 <= id2648 <= 1
 0 <= id2649 <= 1
 0 <= id2650 <= 1
 0 <= id2651 <= 1
 0 <= id2652 <= 1
 0 <= id2653 <= 1
 0 <= id2654 <= 1
 0 <= id2655 <= 1
 0 <= id2656 <= 1
 0 <= id2657 <= 1
 0 <= id2658 <= 1
 0 <= id2659 <= 1
 0 <= id2660 <= 1
 0 <= id2661 <= 1
 0 <= id2662 <= 1
 0 <= id2663 <= 1
 0 <= id2664 <= 1
 0 <= id2665 <= 1
 0 <= id2666 <= 1
 0 <= id2667 <= 1
 0 <= id2668 <= 1
 0 <= id2669 <= 1
 0 <= id2670 <= 1
 0 <= id2671 <= 1
 0 <= id2672 <= 1
 0 <= id2673 <= 1
 0 <= id2674 <= 1
 0 <= id2675 <= 1
 0 <= id2676 <= 1
 0 <= id2677 <= 1
 0 <= id2678 <= 1
 0 <= id2679 <= 1
 0 <= id2680 <= 1
 0 <= id2681 <= 1
 0 <= id2682 <= 1
 0 <= id2683 <= 1
 0 <= id2684 <= 1
 0 <= id2685 <= 1
 0 <= id2686 <= 1
 0 <= id2687 <= 1
 0 <= id2688 <= 1
 0 <= id2689 <= 1
 0 <= id2690 <= 1
 0 <= id2691 <= 1
 0 <= id2692 <= 1
 0 <= id2693 <= 1
 0 <= id2694 <= 1
 0 <= id2695 <= 1
 0 <= id2696 <= 1
 0 <= id2697 <= 1
 0 <= id2698 <= 1
 0 <= id2699 <= 1
 0 <= id2700 <= 1
 0 <= id2701 <= 1
 0 <= id2702 <= 1
 0 <= id2703 <= 1
 0 <= id2704 <= 1
 0 <= id2705 <= 1
 0 <= id2706 <= 1
 0 <= id2707 <= 1
 0 <= id2708 <= 1
 0 <= id2709 <= 1
 0 <= id2710 <= 1
 0 <= id2711 <= 1
 0 <= id2712 <= 1
 0 <= id2713 <= 1
 0 <= id2714 <= 1
 0 <= id2715 <= 1
 0 <= id2716 <= 1
 0 <= id2717 <= 1
 0 <= id2718 <= 1
 0 <= id2719 <= 1
 0 <= id2720 <= 1
 0 <= id2721 <= 1
 0 <= id2722 <= 1
 0 <= id2723 <= 1
 0 <= id2724 <= 1
 0 <= id2725 <= 1
 0 <= id2726 <= 1
 0 <= id2727 <= 1
 0 <= id2728 <= 1
 0 <= id2729 <= 1
 0 <= id2730 <= 1
 0 <= id2731 <= 1
 0 <= id2732 <= 1
 0 <= id2733 <= 1
 0 <= id2734 <= 1
 0 <= id2735 <= 1
 0 <= id2736 <= 1
 0 <= id2737 <= 1
 0 <= id2738 <= 1
 0 <= id2739 <= 1
 0 <= id2740 <= 1
 0 <= id2741 <= 1
 0 <= id2742 <= 1
 0 <= id2743 <= 1
 0 <= id2744 <= 1
 0 <= id2745 <= 1
 0 <= id2746 <= 1
 0 <= id2747 <= 1
 0 <= id2748 <= 1
 0 <= id2749 <= 1
 0 <= id2750 <= 1
 0 <= id2751 <= 1
 0 <= id2752 <= 1
 0 <= id2753 <= 1
 0 <= id2754 <= 1
 0 <= id2755 <= 1
 0 <= id2756 <= 1
 0 <= id2757 <= 1
 0 <= id2758 <= 1
 0 <= id2759 <= 1
 0 <= id2760 <= 1
 0 <= id2761 <= 1
 0 <= id2762 <= 1
 0 <= id2763 <= 1
 0 <= id2764 <= 1
 0 <= id2765 <= 1
 0 <= id2766 <= 1
 0 <= id2767 <= 1
 0 <= id2768 <= 1
 0 <= id2769 <= 1
 0 <= id2770 <= 1
 0 <= id2771 <= 1
 0 <= id2772 <= 1
 0 <= id2773 <= 1
 0 <= id2774 <= 1
 0 <= id2775 <= 1
 0 <= id2776 <= 1
 0 <= id2777 <= 1
 0 <= id2778 <= 1
 0 <= id2779 <= 1
 0 <= id2780 <= 1
 0 <= id2781 <= 1
 0 <= id2782 <= 1
 0 <= id2783 <= 1
 0 <= id2784 <= 1
 0 <= id2785 <= 1
 0 <= id2786 <= 1
      id2787 = 0
Binaries
 id2583  id2584  id2585  id2586  id2587  id2588  id2589  id2590  id2591 
 id2592  id2593  id2594  id2595  id2596  id2597  id2598  id2599  id2600 
 id2601  id2602  id2603  id2604  id2605  id2606  id2607  id2608  id2609 
 id2610  id2611  id2612  id2613  id2614  id2615  id2616  id2617  id2618 
 id2619  id2620  id2621  id2622  id2623  id2624  id2625  id2626  id2627 
 id2628  id2629  id2630  id2631  id2632  id2633  id2634  id2635  id2636 
 id2637  id2638  id2639  id2640  id2641  id2642  id2643  id2644  id2645 
 id2646  id2647  id2648  id2649  id2650  id2651  id2652  id2653  id2654 
 id2655  id2656  id2657  id2658  id2659  id2660  id2661  id2662  id2663 
 id2664  id2665  id2666  id2667  id2668  id2669  id2670  id2671  id2672 
 id2673  id2674  id2675  id2676  id2677  id2678  id2679  id2680  id2681 
 id2682  id2683  id2684  id2685  id2686  id2687  id2688  id2689  id2690 
 id2691  id2692  id2693  id2694  id2695  id2696  id2697  id2698  id2699 
 id2700  id2701  id2702  id2703  id2704  id2705  id2706  id2707  id2708 
 id2709  id2710  id2711  id2712  id2713  id2714  id2715  id2716  id2717 
 id2718  id2719  id2720  id2721  id2722  id2723  id2724  id2725  id2726 
 id2727  id2728  id2729  id2730  id2731  id2732  id2733  id2734  id2735 
 id2736  id2737  id2738  id2739  id2740  id2741  id2742  id2743  id2744 
 id2745  id2746  id2747  id2748  id2749  id2750  id2751  id2752  id2753 
 id2754  id2755  id2756  id2757  id2758  id2759  id2760  id2761  id2762 
 id2763  id2764  id2765  id2766  id2767  id2768  id2769  id2770  id2771 
 id2772  id2773  id2774  id2775  id2776  id2777  id2778  id2779  id2780 
 id2781  id2782  id2783  id2784  id2785  id2786 
End
